HUN,8,6,395
2,4,0,17,1,24,3,21,5,3,4,15
0,16,2,28,1,12,4,27,3,6,5,25
2,30,1,30,0,25,3,28,4,26,5,16
1,5,2,3,0,5,5,22,4,18,3,17
0,22,1,21,2,23,5,2,3,27,4,1
1,21,2,1,0,17,4,24,3,6,5,16
1,14,2,1,0,4,5,14,4,28,3,17
0,5,2,14,1,11,4,5,5,16,3,10
